15
1
2 12
3 13 7
4 14 8 5
5 15 9 8 1
6 16 10 11 2 4
7 17 11 14 3 4 50
8 18 12 17 4 4 49 28
9 19 13 20 5 4 48 27 11
10 20 14 23 6 4 47 26 12 2
11 21 15 26 7 4 46 25 13 4 1
12 22 16 29 8 4 45 24 14 6 3 6
13 23 17 32 9 4 44 23 15 8 5 7 20
14 24 18 35 10 4 43 22 16 10 7 8 18 3
